p tw 26 39
1 2
1 20
1 26
2 12
2 16
3 12
3 21
3 25
4 9
4 13
4 21
5 18
5 19
5 20
6 14
6 19
6 24
7 19
7 24
7 25
8 9
8 14
8 15
9 21
10 11
10 13
10 22
11 16
11 25
12 23
13 23
14 22
15 18
15 20
16 26
17 18
17 22
17 24
23 26
